3 10 5 5 800
0.0 0.23 2.0 0.3 4.0 0.39 3.0 0.21 1.0 0.27 3.0 0.28 1.0 0.34 0.0 0.25 4.0 0.18 2.0 0.21
3.0 0.2 0.0 0.38 4.0 0.38 1.0 0.39 1.0 0.39 2.0 0.47 0.0 0.36 4.0 0.43 2.0 0.25 3.0 0.48
0.0 0.19 2.0 0.4 4.0 0.38 2.0 0.32 1.0 0.44 0.0 0.27 1.0 0.44 4.0 0.17 3.0 0.26 3.0 0.39
